language ESSENCE' 1.0
$ minion Nodes: 1
$ minion TotalTime: 0.000395
$ Savile Row TotalTime: 0.118
letting pain_tuple1 be [2]
letting pain_tuple3_tuple2 be [3]
letting pain_tuple3_tuple1 be [7]
letting pain_tuple2_tuple1 be [5]
